Results/recovery.sol
# Solution for model recoveryProblem_model
# Objective value = 2.2844000000000007e+04
_r[9,Do_nothing,Do_nothing] 0
_r[9,Do_nothing,Recover] 0
_r[9,R1,Do_nothing] 0
_r[9,R1,Recover] 0
_r[9,R2,Do_nothing] 0
_r[9,R2,Recover] 0
_r[9,R3,Do_nothing] 1
_r[9,R3,Recover] 0
_r[6,Do_nothing,Do_nothing] 1
_r[6,Do_nothing,Recover] 0
_r[6,R1,Do_nothing] 0
_r[6,R1,Recover] 0
_r[6,R2,Do_nothing] 0
_r[6,R2,Recover] 0
_r[6,R3,Do_nothing] 0
_r[6,R3,Recover] 0
_r[2,Do_nothing,Do_nothing] 0
_r[2,Do_nothing,Recover] 0
_r[2,R1,Do_nothing] 0
_r[2,R1,Recover] 0
_r[2,R2,Do_nothing] 0
_r[2,R2,Recover] 0
_r[2,R3,Do_nothing] 1
_r[2,R3,Recover] 0
_r[10,Do_nothing,Do_nothing] 1
_r[10,Do_nothing,Recover] 0
_r[10,R1,Do_nothing] 0
_r[10,R1,Recover] 0
_r[10,R2,Do_nothing] 0
_r[10,R2,Recover] 0
_r[10,R3,Do_nothing] 0
_r[10,R3,Recover] 0
_r[5,Do_nothing,Do_nothing] 1
_r[5,Do_nothing,Recover] 0
_r[5,R1,Do_nothing] 0
_r[5,R1,Recover] 0
_r[5,R2,Do_nothing] 0
_r[5,R2,Recover] 0
_r[5,R3,Do_nothing] 0
_r[5,R3,Recover] 0
_r[1,Do_nothing,Do_nothing] 1
_r[1,Do_nothing,Recover] 0
_r[1,R1,Do_nothing] 0
_r[1,R1,Recover] 0
_r[1,R2,Do_nothing] 0
_r[1,R2,Recover] 0
_r[1,R3,Do_nothing] 0
_r[1,R3,Recover] 0
_r[4,Do_nothing,Do_nothing] 1
_r[4,Do_nothing,Recover] 0
_r[4,R1,Do_nothing] 0
_r[4,R1,Recover] 0
_r[4,R2,Do_nothing] 0
_r[4,R2,Recover] 0
_r[4,R3,Do_nothing] 0
_r[4,R3,Recover] 0
_r[8,Do_nothing,Do_nothing] 0
_r[8,Do_nothing,Recover] 0
_r[8,R1,Do_nothing] 0
_r[8,R1,Recover] 0
_r[8,R2,Do_nothing] 0
_r[8,R2,Recover] 0
_r[8,R3,Do_nothing] 1
_r[8,R3,Recover] 0
_r[3,Do_nothing,Do_nothing] 0
_r[3,Do_nothing,Recover] 0
_r[3,R1,Do_nothing] 0
_r[3,R1,Recover] 0
_r[3,R2,Do_nothing] 0
_r[3,R2,Recover] 0
_r[3,R3,Do_nothing] 1
_r[3,R3,Recover] 0
_r[7,Do_nothing,Do_nothing] 1
_r[7,Do_nothing,Recover] 0
_r[7,R1,Do_nothing] 0
_r[7,R1,Recover] 0
_r[7,R2,Do_nothing] 0
_r[7,R2,Recover] 0
_r[7,R3,Do_nothing] 0
_r[7,R3,Recover] 0
